#######################
Slurm job id: 17497813_91
Running on machine: p16
Running cmd: /nfs/shared/static-builds/gurobi1003 SOFTMEMLIMIT=125 MIPFocus=0 Presolve=1 TimeLimit=300 seed=0 /nfs/models/miplib2010/k16x240.mps.bz2
#######################
Set parameter TimeLimit to value 300
Set parameter SoftMemLimit to value 125
Set parameter LogFile to value 1003-MIPFocus0-Presolve1-TimeLimit300-k16x240-0.log
Set parameter Presolve to value 1
Using license file /opt/gurobi/gurobi.lic

Gurobi Optimizer version 10.0.3 build v10.0.3rc0 (linux64)
Copyright (c) 2023, Gurobi Optimization, LLC

Read MPS format model from file /nfs/models/miplib2010/k16x240.mps.bz2
Reading time = 0.00 seconds
k16x240: 256 rows, 480 columns, 960 nonzeros

CPU model: Intel(R) Xeon(R) E-2388G CPU @ 3.20GHz, instruction set [SSE2|AVX|AVX2|AVX512]
Thread count: 8 physical cores, 16 logical processors, using up to 16 threads

Optimize a model with 256 rows, 480 columns and 960 nonzeros
Model fingerprint: 0x4e80885f
Variable types: 240 continuous, 240 integer (240 binary)
Coefficient statistics:
  Matrix range     [1e+00, 1e+03]
  Objective range  [1e+00, 1e+03]
  Bounds range     [1e+00, 1e+03]
  RHS range        [4e+00, 4e+02]
Found heuristic solution: objective 23615.000000
Presolve time: 0.00s
Presolved: 256 rows, 480 columns, 960 nonzeros
Variable types: 240 continuous, 240 integer (240 binary)

Root relaxation: objective 2.769838e+03, 51 iterations, 0.00 seconds (0.00 work units)

    Nodes    |    Current Node    |     Objective Bounds      |     Work
 Expl Unexpl |  Obj  Depth IntInf | Incumbent    BestBd   Gap | It/Node Time

     0     0 2769.83800    0   14 23615.0000 2769.83800  88.3%     -    0s
H    0     0                    11359.000000 2769.83800  75.6%     -    0s
H    0     0                    11195.000000 2769.83800  75.3%     -    0s
H    0     0                    11074.000000 8084.69631  27.0%     -    0s
     0     0 8084.69631    0   26 11074.0000 8084.69631  27.0%     -    0s
H    0     0                    10916.000000 8084.69631  25.9%     -    0s
     0     0 8528.16906    0   24 10916.0000 8528.16906  21.9%     -    0s
H    0     0                    10840.000000 8539.15185  21.2%     -    0s
     0     0 8539.15185    0   34 10840.0000 8539.15185  21.2%     -    0s
     0     0 8548.03675    0   29 10840.0000 8548.03675  21.1%     -    0s
     0     0 8733.37944    0   34 10840.0000 8733.37944  19.4%     -    0s
H    0     0                    10678.000000 8733.37944  18.2%     -    0s
     0     0 8793.89382    0   28 10678.0000 8793.89382  17.6%     -    0s
     0     0 8813.48501    0   28 10678.0000 8813.48501  17.5%     -    0s
     0     0 8817.87868    0   34 10678.0000 8817.87868  17.4%     -    0s
     0     0 8889.01643    0   39 10678.0000 8889.01643  16.8%     -    0s
     0     0 8906.39348    0   34 10678.0000 8906.39348  16.6%     -    0s
     0     0 8910.06644    0   30 10678.0000 8910.06644  16.6%     -    0s
     0     0 9051.47768    0   31 10678.0000 9051.47768  15.2%     -    0s
     0     0 9064.09044    0   28 10678.0000 9064.09044  15.1%     -    0s
     0     0 9067.10966    0   28 10678.0000 9067.10966  15.1%     -    0s
     0     0 9084.36934    0   30 10678.0000 9084.36934  14.9%     -    0s
     0     0 9084.36934    0   30 10678.0000 9084.36934  14.9%     -    0s
     0     2 9092.43825    0   30 10678.0000 9092.43825  14.8%     -    0s
H  728   606                    10674.000000 9217.31023  13.6%  18.0    0s
 37215 14365 10562.4152   39   12 10674.0000 10077.2817  5.59%  24.4    5s
 74547 19364 10411.7293   27   21 10674.0000 10226.7667  4.19%  25.4   10s
 121019 16321     cutoff   31      10674.0000 10383.6787  2.72%  25.8   15s

Cutting planes:
  Lift-and-project: 14
  Cover: 75
  Implied bound: 33
  MIR: 151
  Flow cover: 274
  Flow path: 46
  Inf proof: 2
  Zero half: 9
  Network: 64
  Relax-and-lift: 2

Explored 161831 nodes (4026765 simplex iterations) in 18.86 seconds (22.48 work units)
Thread count was 16 (of 16 available processors)

Solution count 8: 10674 10678 10840 ... 23615

Optimal solution found (tolerance 1.00e-04)
Best objective 1.067400000000e+04, best bound 1.067400000000e+04, gap 0.0000%
